Route #1: 34 138 25 134 10 114 29 58 39 52 107 18
Route #2: 32 42 3 106 73 135 21 131 105 56 61 101
Route #3: 49 14 120 26 128 142 62 97 87 65 36 68
Route #4: 71 149 8 44 124 130 46 19 27 116 37 152
Route #5: 38 122 69 99 93 103 16 20 75 118 147 15
Route #6: 150 96 102 132 111 86 94 104 127 145 28 66
Route #7: 72 48 33 79 74 155 22 30 84 82 113 151
Route #8: 64 153 76 119 136 112 89 81 109 60 12 11
Route #9: 141 43 88 57 2 77 45 90 51 100 91 129
Route #10: 13 24 47 70 92 139 125 1 126 5 83 63
Route #11: 117 78 9 108 40 146 80 7 137 156 59 148
Route #12: 121 23 31 140 85 144 53 123 98 154 50 133
Route #13: 143 41 110 54 6 115 55 95 35 4 67 17
